NAME          ClpDefau  FREE
ROWS
 N  OBJROW
 L  ZMUNI1_PCT
 L  ZMUNI2_PCT
 L  ZMUNI3_PCT
 L  ZMUNI4_PCT
 L  ZMUNI5_PCT
 L  ZMUNI6_PCT
 L  ZMUNI7_PCT
 L  ZMUNI8_PCT
 L  ZMUNI9_PCT
COLUMNS
    QMUNI1 OBJROW 1.          
    QMUNI1 ZMUNI1_PCT 28194.046   
    QMUNI1 ZMUNI2_PCT 1839.9239   
    QMUNI1 ZMUNI3_PCT 4222.5837   
    QMUNI1 ZMUNI4_PCT 3094.244    
    QMUNI1 ZMUNI5_PCT  -326.4427  
    QMUNI1 ZMUNI6_PCT  -75.1496   
    QMUNI1 ZMUNI7_PCT 1429.9393   
    QMUNI1 ZMUNI8_PCT 1255.6076   
    QMUNI1 ZMUNI9_PCT 615.2153    
    QMUNI2 OBJROW 1.          
    QMUNI2 ZMUNI1_PCT 1533.9852   
    QMUNI2 ZMUNI2_PCT 33074.5697  
    QMUNI2 ZMUNI3_PCT 2355.0987   
    QMUNI2 ZMUNI4_PCT 2534.24644  
    QMUNI2 ZMUNI5_PCT  -473.9761  
    QMUNI2 ZMUNI6_PCT  -371.0747  
    QMUNI2 ZMUNI7_PCT 383.3771    
    QMUNI2 ZMUNI8_PCT 724.2203    
    QMUNI2 ZMUNI9_PCT 699.0433    
    QMUNI3 OBJROW 1.          
    QMUNI3 ZMUNI1_PCT 4430.1033   
    QMUNI3 ZMUNI2_PCT 2844.6198   
    QMUNI3 ZMUNI3_PCT 29827.8808  
    QMUNI3 ZMUNI4_PCT 5300.61722  
    QMUNI3 ZMUNI5_PCT 382.3281    
    QMUNI3 ZMUNI6_PCT 550.4608    
    QMUNI3 ZMUNI7_PCT 1971.0541   
    QMUNI3 ZMUNI8_PCT 1940.5365   
    QMUNI3 ZMUNI9_PCT 1230.2399   
    QMUNI4 OBJROW 1.          
    QMUNI4 ZMUNI1_PCT 3289.6996   
    QMUNI4 ZMUNI2_PCT 3085.7087   
    QMUNI4 ZMUNI3_PCT 5497.2648   
    QMUNI4 ZMUNI4_PCT 104021.16775
    QMUNI4 ZMUNI5_PCT  -211.0481  
    QMUNI4 ZMUNI6_PCT  -46.7301   
    QMUNI4 ZMUNI7_PCT 1146.3165   
    QMUNI4 ZMUNI8_PCT 1309.0134   
    QMUNI4 ZMUNI9_PCT 1022.3389   
    QMUNI5 OBJROW 1.          
    QMUNI5 ZMUNI1_PCT  -454.1397  
    QMUNI5 ZMUNI2_PCT  -390.0528  
    QMUNI5 ZMUNI3_PCT  -458.8127  
    QMUNI5 ZMUNI4_PCT  -411.27205 
    QMUNI5 ZMUNI5_PCT 31639.8621  
    QMUNI5 ZMUNI6_PCT 1630.6877   
    QMUNI5 ZMUNI7_PCT  -953.6743  
    QMUNI5 ZMUNI8_PCT  -908.2794  
    QMUNI5 ZMUNI9_PCT  -770.3781  
    QMUNI6 OBJROW 1.          
    QMUNI6 ZMUNI1_PCT 33.1879     
    QMUNI6 ZMUNI2_PCT  -133.8005  
    QMUNI6 ZMUNI3_PCT  -37.0026   
    QMUNI6 ZMUNI4_PCT  -60.41527  
    QMUNI6 ZMUNI5_PCT 2160.4538   
    QMUNI6 ZMUNI6_PCT 30541.3246  
    QMUNI6 ZMUNI7_PCT  -173.7594  
    QMUNI6 ZMUNI8_PCT  -338.3636  
    QMUNI6 ZMUNI9_PCT  -496.4828  
    QMUNI7 OBJROW 1.          
    QMUNI7 ZMUNI1_PCT 1340.7707   
    QMUNI7 ZMUNI2_PCT 790.5007    
    QMUNI7 ZMUNI3_PCT 1172.4472   
    QMUNI7 ZMUNI4_PCT 880.86128   
    QMUNI7 ZMUNI5_PCT 55.2178     
    QMUNI7 ZMUNI6_PCT 254.0588    
    QMUNI7 ZMUNI7_PCT 27443.3136  
    QMUNI7 ZMUNI8_PCT 2115.0589   
    QMUNI7 ZMUNI9_PCT 588.7985    
    QMUNI8 OBJROW 1.          
    QMUNI8 ZMUNI1_PCT 946.1403    
    QMUNI8 ZMUNI2_PCT 871.1815    
    QMUNI8 ZMUNI3_PCT 1002.5024   
    QMUNI8 ZMUNI4_PCT 781.77452   
    QMUNI8 ZMUNI5_PCT  -527.9541  
    QMUNI8 ZMUNI6_PCT  -382.9003  
    QMUNI8 ZMUNI7_PCT 1622.2      
    QMUNI8 ZMUNI8_PCT 26045.4178  
    QMUNI8 ZMUNI9_PCT 863.5521    
    QMUNI9 OBJROW 1.          
    QMUNI9 ZMUNI1_PCT 629.5204    
    QMUNI9 ZMUNI2_PCT 974.5598    
    QMUNI9 ZMUNI3_PCT 729.3701    
    QMUNI9 ZMUNI4_PCT 648.78463   
    QMUNI9 ZMUNI5_PCT 18.5013     
    QMUNI9 ZMUNI6_PCT 79.9179     
    QMUNI9 ZMUNI7_PCT 611.6867    
    QMUNI9 ZMUNI8_PCT 1177.5971   
    QMUNI9 ZMUNI9_PCT 25158.3099  
RHS
    RHS ZMUNI1_PCT  -0.35106024
    RHS ZMUNI2_PCT  -0.21058088
    RHS ZMUNI3_PCT  -0.46219363
    RHS ZMUNI4_PCT 0.0234702741
    RHS ZMUNI5_PCT 0.3351814196
    RHS ZMUNI6_PCT 0.3413492467
    RHS ZMUNI7_PCT  -0.28583162
    RHS ZMUNI8_PCT  -0.21036578
    RHS ZMUNI9_PCT 0.0298620928
BOUNDS
 LO BOUND QMUNI1 -0.001045571
 UP BOUND QMUNI1      1.1e+10
 LO BOUND QMUNI2 -0.000755758
 UP BOUND QMUNI2      1.1e+10
 LO BOUND QMUNI3 -0.000828364
 UP BOUND QMUNI3      1.1e+10
 LO BOUND QMUNI4 -0.000281047
 UP BOUND QMUNI4      1.1e+10
 LO BOUND QMUNI5 -0.000650354
 UP BOUND QMUNI5      1.1e+10
 LO BOUND QMUNI6 -0.000822482
 UP BOUND QMUNI6      1.1e+10
 LO BOUND QMUNI7 -0.00050537 
 UP BOUND QMUNI7      1.1e+10
 LO BOUND QMUNI8 -0.000601404
 UP BOUND QMUNI8      1.1e+10
 LO BOUND QMUNI9 -0.000665457
 UP BOUND QMUNI9      1.1e+10
ENDATA
